Set parameter TokenServer to value "hpc-licenses.hpcc.usc.edu"
Set parameter TimeLimit to value 3600
Gurobi Optimizer version 9.5.1 build v9.5.1rc2 (linux64)
Thread count: 20 physical cores, 20 logical processors, using up to 20 threads
Optimize a model with 6007 rows, 4529 columns and 24534 nonzeros
Model fingerprint: 0x1f8625fe
Variable types: 4506 continuous, 23 integer (23 binary)
Coefficient statistics:
  Matrix range     [1e+00, 1e+00]
  Objective range  [3e-03, 1e+00]
  Bounds range     [1e+00, 1e+00]
  RHS range        [1e+00, 2e+02]
Found heuristic solution: objective 219.7774108
Presolve removed 1520 rows and 1515 columns
Presolve time: 0.05s
Presolved: 4487 rows, 3014 columns, 21975 nonzeros
Variable types: 2994 continuous, 20 integer (20 binary)

Root relaxation: objective 2.360204e+02, 2905 iterations, 0.11 seconds (0.16 work units)

    Nodes    |    Current Node    |     Objective Bounds      |     Work
 Expl Unexpl |  Obj  Depth IntInf | Incumbent    BestBd   Gap | It/Node Time

     0     0  236.02039    0    3  219.77741  236.02039  7.39%     -    0s
H    0     0                     223.0594373  236.02039  5.81%     -    0s
     0     0  235.94529    0    2  223.05944  235.94529  5.78%     -    0s
H    0     0                     235.5938955  235.94529  0.15%     -    0s
     0     0  235.91031    0    4  235.59390  235.91031  0.13%     -    0s
     0     0  235.91031    0    3  235.59390  235.91031  0.13%     -    1s
     0     0  235.91031    0    2  235.59390  235.91031  0.13%     -    1s
     0     0  235.59390    0    6  235.59390  235.59390  0.00%     -    1s

Cutting planes:
  Gomory: 6
  Implied bound: 296
  MIR: 319
  Flow cover: 262
  RLT: 3
  Relax-and-lift: 211

Explored 1 nodes (5973 simplex iterations) in 1.91 seconds (0.82 work units)
Thread count was 20 (of 20 available processors)

Solution count 3: 235.594 223.059 219.777 

Optimal solution found (tolerance 1.00e-04)
Best objective 2.355938954947e+02, best bound 2.355938954947e+02, gap 0.0000%



#########node  1
V1.6
#########node  2
0.04411764705882353,0.9558823529411765
#########node  3
1.0,0.0


Total Solving Time 2.31392502784729
obj value 235.5938954946558
Policy Regret train (Sum) 1.948859407221686
Best Treatment Found train (%) 79.80000000000001
treatment classification acc train (%) 31.2
Policy Regret test (Sum) 33.257454375572316
Best Treatment Found test (%) 81.92
treatment classification acc test (%) 29.880000000000003
